n = 60;
capacity = 100;
size = [79, 78, 77, 77, 76, 73, 72, 72, 72, 71, 71, 70, 70, 70, 69, 69, 68, 67, 65, 65, 64, 64, 63, 63, 62, 62, 59, 58, 57, 56, 55, 55, 54, 54, 52, 49, 48, 47, 46, 42, 39, 39, 37, 37, 35, 32, 32, 31, 30, 30, 29, 26, 26, 24, 23, 22, 22, 22, 20, 20];
